
<<< setup

Tried aggregator 1 time.
LP Presolve eliminated 115 rows and 74 columns.
Reduced LP has 3 rows, 28 columns, and 28 nonzeros.
Presolve time = 0.00 sec. (0.05 ticks)

Iteration log . . .
Iteration:     1   Dual objective     =          1711.307794
main returns 0

<<< main


<<< done

